\ENCODING=ISO-8859-1
\Problem name: TSP

Minimize
 obj1: 353.764713419333 x(1,2) + 883.003149339342 x(1,3)
       + 1721.63367950739 x(1,4) + 1713.04647928908 x(1,5)
       + 1241.92625637037 x(1,6) + 655.482991589414 x(1,7)
       + 13.6928989844993 x(1,8) + 794.975210549675 x(1,9)
       + 694.166674771202 x(1,10) + 318.296107806549 x(1,11)
       + 634.038485521583 x(1,12) + 774.268848004249 x(1,13)
       + 659.482713909106 x(1,14) + 117.32810560277 x(1,15)
       + 549.280407501209 x(1,16) + 710.556870394917 x(2,3)
       + 1371.32428420471 x(2,4) + 1917.37296702586 x(2,5)
       + 1351.17542669182 x(2,6) + 572.873915341957 x(2,7)
       + 348.20342369431 x(2,8) + 797.393121128509 x(2,9)
       + 752.398568713276 x(2,10) + 659.862317450125 x(2,11)
       + 831.248423184061 x(2,12) + 858.158066570895 x(2,13)
       + 552.861027764012 x(2,14) + 298.569668394024 x(2,15)
       + 214.263009663548 x(2,16) + 1002.11451982645 x(3,4)
       + 1313.59979282198 x(3,5) + 1855.03787499485 x(3,6)
       + 1234.82366968905 x(3,7) + 870.391814301882 x(3,8)
       + 1470.57177191116 x(3,9) + 411.663100263517 x(3,10)
       + 966.761893652101 x(3,11) + 661.058709345487 x(3,12)
       + 461.674955525273 x(3,13) + 231.006575572356 x(3,14)
       + 925.192864537338 x(3,15) + 745.946456389461 x(3,16)
       + 563.084115013743 x(4,5) + 857.010711341224 x(4,6)
       + 1172.58911017262 x(4,7) + 1717.66083622631 x(4,8)
       + 1120.91775701659 x(4,9) + 1332.01766213307 x(4,10)
       + 1940.63008978852 x(4,11) + 1503.19555534348 x(4,12)
       + 1294.31383119831 x(4,13) + 1228.31237259015 x(4,14)
       + 1629.75371537715 x(4,15) + 1173.53025952631 x(4,16)
       + 614.138653073202 x(5,6) + 1372.98637885676 x(5,7)
       + 1720.67815722275 x(5,8) + 1158.83783111542 x(5,9)
       + 1322.15953794097 x(5,10) + 1419.68401061455 x(5,11)
       + 1257.29059330568 x(5,12) + 1217.97814781601 x(5,13)
       + 1495.01707637077 x(5,14) + 1741.98141197068 x(5,15)
       + 1705.0782427292 x(5,16) + 788.40186180161 x(6,7)
       + 1254.61398650155 x(6,8) + 556.307698267318 x(6,9)
       + 1724.18905228412 x(6,10) + 1184.90216150916 x(6,11)
       + 1477.84518074145 x(6,12) + 1652.90649940039 x(6,13)
       + 1896.53462216695 x(6,14) + 1183.40819647596 x(6,15)
       + 1264.42168533794 x(6,16) + 663.5334386329 x(7,8)
       + 237.474770028833 x(7,9) + 1306.74025905319 x(7,10)
       + 893.083285991155 x(7,11) + 1287.89002135342 x(7,12)
       + 1405.47937507925 x(7,13) + 1121.48401269868 x(7,14)
       + 542.121249133232 x(7,15) + 489.89232095557 x(7,16)
       + 805.762974245624 x(8,9) + 683.023470238991 x(8,10)
       + 320.026025865118 x(8,11) + 626.589125096228 x(8,12)
       + 763.942412022461 x(8,13) + 646.792790239315 x(8,14)
       + 123.595614687025 x(8,15) + 546.146457845585 x(8,16)
       + 1486.81496301248 x(9,10) + 945.599637483935 x(9,11)
       + 1382.88249768048 x(9,12) + 1566.54473798539 x(9,13)
       + 1349.24970421049 x(9,14) + 696.612261709101 x(9,15)
       + 726.022451004193 x(9,16) + 619.953075587325 x(10,11)
       + 250.397234618649 x(10,12) + 107.809987834436 x(10,13)
       + 290.472341530498 x(10,14) + 791.435600349496 x(10,15)
       + 909.944372902089 x(10,16) + 439.883347760682 x(11,12)
       + 652.230674050129 x(11,13) + 744.961226219488 x(11,14)
       + 419.620558993902 x(11,15) + 864.292111706823 x(11,16)
       + 230.139991052681 x(12,13) + 514.686487849999 x(12,14)
       + 748.984758639021 x(12,15) + 1029.84500030561 x(12,16)
       + 384.188687464163 x(13,14) + 878.020650098301 x(13,15)
       + 1016.32703429447 x(13,16) + 714.616891102107 x(14,15)
       + 658.435542814589 x(14,16) + 467.26775558576 x(15,16)
Subject To
 degree(1):  x(1,2) + x(1,3) + x(1,4) + x(1,5) + x(1,6) + x(1,7) + x(1,8)
             + x(1,9) + x(1,10) + x(1,11) + x(1,12) + x(1,13) + x(1,14)
             + x(1,15) + x(1,16)  = 2
 degree(2):  x(1,2) + x(2,3) + x(2,4) + x(2,5) + x(2,6) + x(2,7) + x(2,8)
             + x(2,9) + x(2,10) + x(2,11) + x(2,12) + x(2,13) + x(2,14)
             + x(2,15) + x(2,16)  = 2
 degree(3):  x(1,3) + x(2,3) + x(3,4) + x(3,5) + x(3,6) + x(3,7) + x(3,8)
             + x(3,9) + x(3,10) + x(3,11) + x(3,12) + x(3,13) + x(3,14)
             + x(3,15) + x(3,16)  = 2
 degree(4):  x(1,4) + x(2,4) + x(3,4) + x(4,5) + x(4,6) + x(4,7) + x(4,8)
             + x(4,9) + x(4,10) + x(4,11) + x(4,12) + x(4,13) + x(4,14)
             + x(4,15) + x(4,16)  = 2
 degree(5):  x(1,5) + x(2,5) + x(3,5) + x(4,5) + x(5,6) + x(5,7) + x(5,8)
             + x(5,9) + x(5,10) + x(5,11) + x(5,12) + x(5,13) + x(5,14)
             + x(5,15) + x(5,16)  = 2
 degree(6):  x(1,6) + x(2,6) + x(3,6) + x(4,6) + x(5,6) + x(6,7) + x(6,8)
             + x(6,9) + x(6,10) + x(6,11) + x(6,12) + x(6,13) + x(6,14)
             + x(6,15) + x(6,16)  = 2
 degree(7):  x(1,7) + x(2,7) + x(3,7) + x(4,7) + x(5,7) + x(6,7) + x(7,8)
             + x(7,9) + x(7,10) + x(7,11) + x(7,12) + x(7,13) + x(7,14)
             + x(7,15) + x(7,16)  = 2
 degree(8):  x(1,8) + x(2,8) + x(3,8) + x(4,8) + x(5,8) + x(6,8) + x(7,8)
             + x(8,9) + x(8,10) + x(8,11) + x(8,12) + x(8,13) + x(8,14)
             + x(8,15) + x(8,16)  = 2
 degree(9):  x(1,9) + x(2,9) + x(3,9) + x(4,9) + x(5,9) + x(6,9) + x(7,9)
             + x(8,9) + x(9,10) + x(9,11) + x(9,12) + x(9,13) + x(9,14)
             + x(9,15) + x(9,16)  = 2
 degree(10): x(1,10) + x(2,10) + x(3,10) + x(4,10) + x(5,10) + x(6,10)
             + x(7,10) + x(8,10) + x(9,10) + x(10,11) + x(10,12) + x(10,13)
             + x(10,14) + x(10,15) + x(10,16)  = 2
 degree(11): x(1,11) + x(2,11) + x(3,11) + x(4,11) + x(5,11) + x(6,11)
             + x(7,11) + x(8,11) + x(9,11) + x(10,11) + x(11,12) + x(11,13)
             + x(11,14) + x(11,15) + x(11,16)  = 2
 degree(12): x(1,12) + x(2,12) + x(3,12) + x(4,12) + x(5,12) + x(6,12)
             + x(7,12) + x(8,12) + x(9,12) + x(10,12) + x(11,12) + x(12,13)
             + x(12,14) + x(12,15) + x(12,16)  = 2
 degree(13): x(1,13) + x(2,13) + x(3,13) + x(4,13) + x(5,13) + x(6,13)
             + x(7,13) + x(8,13) + x(9,13) + x(10,13) + x(11,13) + x(12,13)
             + x(13,14) + x(13,15) + x(13,16)  = 2
 degree(14): x(1,14) + x(2,14) + x(3,14) + x(4,14) + x(5,14) + x(6,14)
             + x(7,14) + x(8,14) + x(9,14) + x(10,14) + x(11,14) + x(12,14)
             + x(13,14) + x(14,15) + x(14,16)  = 2
 degree(15): x(1,15) + x(2,15) + x(3,15) + x(4,15) + x(5,15) + x(6,15)
             + x(7,15) + x(8,15) + x(9,15) + x(10,15) + x(11,15) + x(12,15)
             + x(13,15) + x(14,15) + x(15,16)  = 2
 degree(16): x(1,16) + x(2,16) + x(3,16) + x(4,16) + x(5,16) + x(6,16)
             + x(7,16) + x(8,16) + x(9,16) + x(10,16) + x(11,16) + x(12,16)
             + x(13,16) + x(14,16) + x(15,16)  = 2
Bounds
 0 <= x(1,2) <= 1
 0 <= x(1,3) <= 1
 0 <= x(1,4) <= 1
 0 <= x(1,5) <= 1
 0 <= x(1,6) <= 1
 0 <= x(1,7) <= 1
 0 <= x(1,8) <= 1
 0 <= x(1,9) <= 1
 0 <= x(1,10) <= 1
 0 <= x(1,11) <= 1
 0 <= x(1,12) <= 1
 0 <= x(1,13) <= 1
 0 <= x(1,14) <= 1
 0 <= x(1,15) <= 1
 0 <= x(1,16) <= 1
 0 <= x(2,3) <= 1
 0 <= x(2,4) <= 1
 0 <= x(2,5) <= 1
 0 <= x(2,6) <= 1
 0 <= x(2,7) <= 1
 0 <= x(2,8) <= 1
 0 <= x(2,9) <= 1
 0 <= x(2,10) <= 1
 0 <= x(2,11) <= 1
 0 <= x(2,12) <= 1
 0 <= x(2,13) <= 1
 0 <= x(2,14) <= 1
 0 <= x(2,15) <= 1
 0 <= x(2,16) <= 1
 0 <= x(3,4) <= 1
 0 <= x(3,5) <= 1
 0 <= x(3,6) <= 1
 0 <= x(3,7) <= 1
 0 <= x(3,8) <= 1
 0 <= x(3,9) <= 1
 0 <= x(3,10) <= 1
 0 <= x(3,11) <= 1
 0 <= x(3,12) <= 1
 0 <= x(3,13) <= 1
 0 <= x(3,14) <= 1
 0 <= x(3,15) <= 1
 0 <= x(3,16) <= 1
 0 <= x(4,5) <= 1
 0 <= x(4,6) <= 1
 0 <= x(4,7) <= 1
 0 <= x(4,8) <= 1
 0 <= x(4,9) <= 1
 0 <= x(4,10) <= 1
 0 <= x(4,11) <= 1
 0 <= x(4,12) <= 1
 0 <= x(4,13) <= 1
 0 <= x(4,14) <= 1
 0 <= x(4,15) <= 1
 0 <= x(4,16) <= 1
 0 <= x(5,6) <= 1
 0 <= x(5,7) <= 1
 0 <= x(5,8) <= 1
 0 <= x(5,9) <= 1
 0 <= x(5,10) <= 1
 0 <= x(5,11) <= 1
 0 <= x(5,12) <= 1
 0 <= x(5,13) <= 1
 0 <= x(5,14) <= 1
 0 <= x(5,15) <= 1
 0 <= x(5,16) <= 1
 0 <= x(6,7) <= 1
 0 <= x(6,8) <= 1
 0 <= x(6,9) <= 1
 0 <= x(6,10) <= 1
 0 <= x(6,11) <= 1
 0 <= x(6,12) <= 1
 0 <= x(6,13) <= 1
 0 <= x(6,14) <= 1
 0 <= x(6,15) <= 1
 0 <= x(6,16) <= 1
 0 <= x(7,8) <= 1
 0 <= x(7,9) <= 1
 0 <= x(7,10) <= 1
 0 <= x(7,11) <= 1
 0 <= x(7,12) <= 1
 0 <= x(7,13) <= 1
 0 <= x(7,14) <= 1
 0 <= x(7,15) <= 1
 0 <= x(7,16) <= 1
 0 <= x(8,9) <= 1
 0 <= x(8,10) <= 1
 0 <= x(8,11) <= 1
 0 <= x(8,12) <= 1
 0 <= x(8,13) <= 1
 0 <= x(8,14) <= 1
 0 <= x(8,15) <= 1
 0 <= x(8,16) <= 1
 0 <= x(9,10) <= 1
 0 <= x(9,11) <= 1
 0 <= x(9,12) <= 1
 0 <= x(9,13) <= 1
 0 <= x(9,14) <= 1
 0 <= x(9,15) <= 1
 0 <= x(9,16) <= 1
 0 <= x(10,11) <= 1
 0 <= x(10,12) <= 1
 0 <= x(10,13) <= 1
 0 <= x(10,14) <= 1
 0 <= x(10,15) <= 1
 0 <= x(10,16) <= 1
 0 <= x(11,12) <= 1
 0 <= x(11,13) <= 1
 0 <= x(11,14) <= 1
 0 <= x(11,15) <= 1
 0 <= x(11,16) <= 1
 0 <= x(12,13) <= 1
 0 <= x(12,14) <= 1
 0 <= x(12,15) <= 1
 0 <= x(12,16) <= 1
 0 <= x(13,14) <= 1
 0 <= x(13,15) <= 1
 0 <= x(13,16) <= 1
 0 <= x(14,15) <= 1
 0 <= x(14,16) <= 1
 0 <= x(15,16) <= 1
Binaries
 x(1,2)  x(1,3)  x(1,4)  x(1,5)  x(1,6)  x(1,7)  x(1,8)  x(1,9)  x(1,10) 
 x(1,11)  x(1,12)  x(1,13)  x(1,14)  x(1,15)  x(1,16)  x(2,3)  x(2,4)  x(2,5) 
 x(2,6)  x(2,7)  x(2,8)  x(2,9)  x(2,10)  x(2,11)  x(2,12)  x(2,13)  x(2,14) 
 x(2,15)  x(2,16)  x(3,4)  x(3,5)  x(3,6)  x(3,7)  x(3,8)  x(3,9)  x(3,10) 
 x(3,11)  x(3,12)  x(3,13)  x(3,14)  x(3,15)  x(3,16)  x(4,5)  x(4,6)  x(4,7) 
 x(4,8)  x(4,9)  x(4,10)  x(4,11)  x(4,12)  x(4,13)  x(4,14)  x(4,15)  x(4,16) 
 x(5,6)  x(5,7)  x(5,8)  x(5,9)  x(5,10)  x(5,11)  x(5,12)  x(5,13)  x(5,14) 
 x(5,15)  x(5,16)  x(6,7)  x(6,8)  x(6,9)  x(6,10)  x(6,11)  x(6,12)  x(6,13) 
 x(6,14)  x(6,15)  x(6,16)  x(7,8)  x(7,9)  x(7,10)  x(7,11)  x(7,12)  x(7,13) 
 x(7,14)  x(7,15)  x(7,16)  x(8,9)  x(8,10)  x(8,11)  x(8,12)  x(8,13) 
 x(8,14)  x(8,15)  x(8,16)  x(9,10)  x(9,11)  x(9,12)  x(9,13)  x(9,14) 
 x(9,15)  x(9,16)  x(10,11)  x(10,12)  x(10,13)  x(10,14)  x(10,15)  x(10,16) 
 x(11,12)  x(11,13)  x(11,14)  x(11,15)  x(11,16)  x(12,13)  x(12,14) 
 x(12,15)  x(12,16)  x(13,14)  x(13,15)  x(13,16)  x(14,15)  x(14,16) 
 x(15,16) 
End
